1148.95,49.29,59.07
1033.16,54.81,65.69
1003.71,56.42,67.61
1026.61,55.16,66.11
1119.64,50.58,60.61
1070.27,52.91,63.41
963.42,58.78,70.44
990.82,57.15,68.49
1037.76,54.57,65.4
1122.84,50.43,60.44
1093.87,51.77,62.04
867.16,65.3,78.26
1005.11,56.34,67.52
1013.24,55.89,66.98
970.52,58.35,69.93
1084.95,52.19,62.55
938.91,60.31,72.28
939.13,60.3,72.26
1045.75,54.15,64.9
1033.9,54.77,65.64
